c status 40 1469274320844
c status 32 1469274320845
c status 31 1469274320847
c status 30 1469274321610
s td 15 30 49
b 1 2 13 48 45 47 24 35 31 7 49 9 21 11 26 34 18
b 2 13 48 45 12 8 19 47 15 24 35 31 7 3 27 49 9 10 21 11 22 26 34 36 18
b 3 6 48 45 5 12 46 47 35 31 39 14 3 27 49 20 22 34
b 4 48 45 5 12 8 46 19 47 15 24 35 31 39 30 7 14 3 27 49 20 9 10 21 11 22 26 34 36 18 1
b 5 45 5 12 8 46 19 47 15 24 35 31 39 30 7 14 3 27 49 20 33 9 10 21 11 22 26 34 36 18 1
b 6 5 12 8 46 19 47 15 24 35 31 39 30 7 14 3 27 49 20 38 33 9 10 21 11 22 26 34 36 18 1
b 7 17 23 25 8 19 47 15 24 7 49 20 33 9 21 22 26 36 18 4
b 8 23 25 32 29 8 46 19 47 15 24 31 30 7 27 49 20 33 9 21 22 26 36 18 1 4
b 9 25 32 29 8 46 19 47 15 24 35 31 30 7 3 27 49 20 33 9 10 21 22 26 34 36 18 1 4
b 10 37 32 29 8 46 24 39 30 3 27 20 38 33 11 22 34 36 18
b 11 32 29 8 46 19 47 15 24 35 31 39 30 7 3 27 49 20 38 33 9 10 21 11 22 26 34 36 18 1 4
b 12 29 8 46 19 47 15 24 35 31 39 30 7 14 3 27 49 20 38 33 9 10 21 11 22 26 34 36 18 1 4
b 13 28 40 41 42 16 36 1 4
b 14 44 43 16 1 4
b 15 16 22 26 34 36 18 1 4
1 2
2 4
4 5
5 6
6 12
12 11
11 9
9 8
8 7
11 10
4 3
9 15
15 13
13 14
